data/benchmarks/bayes/90-10-4-q.cnf
p cnf 460 405
c weights 0.383115 0.616885 1 1 1 1 1 1 1 1 1 1 1 1 1 1 1 1 1 1 1 1 1 1 1 1 1 1 1 1 1 1 1 1 1 1 1 1 1 1 1 1 1 1 1 1 1 1 1 1 1 1 1 1 1 1 1 1 1 1 1 1 1 1 1 1 1 1 1 1 1 1 1 1 1 1 1 1 1 1 1 1 1 1 1 1 1 1 1 1 1 1 1 1 1 1 1 1 1 1 1 1 1 1 1 1 1 1 1 1 1 1 1 1 1 1 1 1 1 1 1 1 1 1 1 1 1 1 1 1 1 1 1 1 1 1 1 1 1 1 1 1 1 1 1 1 1 1 1 1 1 1 1 1 1 1 1 1 1 1 1 1 1 1 1 1 1 1 1 1 1 1 1 1 1 1 1 1 1 1 1 1 1 1 1 1 1 1 1 1 1 1 1 1 1 1 1 1 1 1 0.5 0.5 0.5 0.5 0.5 0.5 0.5 0.5 0.5 0.5 0.5 0.5 0.5 0.5 0.5 0.5 0.5 0.5 0.5 0.5 0.5 0.5 0.5 0.5 0.5 0.5 0.5 0.5 0.5 0.5 0.5 0.5 0.5 0.5 0.5 0.5 0.5 0.5 0.5 0.5 0.5 0.5 0.5 0.5 0.5 0.5 0.5 0.5 0.5 0.5 0.5 0.5 0.5 0.5 0.5 0.5 0.5 0.5 0.5 0.5 0.5 0.5 0.5 0.5 0.5 0.5 0.5 0.5 0.5 0.5 0.5 0.5 0.711301 0.28869900000000004 0.781515 0.21848500000000004 0.400583 0.599417 0.468152 0.531848 0.522787 0.477213 0.604753 0.395247 0.764361 0.23563900000000004 0.897841 0.102159 0.5 0.5 0.5 0.5 0.5 0.5 0.5 0.5 0.5 0.5 0.5 0.5 0.5 0.5 0.5 0.5 0.5 0.5 0.5 0.5 0.5 0.5 0.5 0.5 0.5 0.5 0.5 0.5 0.5 0.5 0.5 0.5 0.5 0.5 0.5 0.5 0.5 0.5 0.5 0.5 0.5 0.5 0.5 0.5 0.5 0.5 0.5 0.5 0.5 0.5 0.5 0.5 0.5 0.5 0.5 0.5 0.5 0.5 0.5 0.5 0.5 0.5 0.5 0.5 0.5 0.5 0.5 0.5 0.5 0.5 0.5 0.5 0.5 0.5 0.5 0.5 0.5 0.5 0.5 0.5 0.5 0.5 0.5 0.5 0.5 0.5 0.5 0.5 0.5 0.5 0.5 0.5 0.5 0.5 0.5 0.5 0.5 0.5 0.5 0.5 0.5 0.5 0.5 0.5 0.5 0.5 0.5 0.5 0.5 0.5 0.5 0.5 0.5 0.5 0.5 0.5 0.5 0.5 0.5 0.5 0.5 0.5 0.5 0.5 0.5 0.5 0.5 0.5 0.25153 0.74847 0.744923 0.255077 0.16176 0.83824 0.227767 0.772233 0.5 0.5 0.5 0.5 0.5 0.5 0.5 0.5 0.5 0.5 0.5 0.5 0.5 0.5 0.5 0.5 0.588834 0.41116600000000003 0.133243 0.866757 0.189676 0.810324 0.480802 0.519198 0.5 0.5 0.5 0.5 0.5 0.5 0.5 0.5 0.5 0.5 0.5 0.5 0.5 0.5 0.5 0.5 0.5 0.5 0.5 0.5 0.5 0.5 0.5 0.5 0.5 0.5 0.5 0.5 0.5 0.5 0.5 0.5 0.5 0.5 0.5 0.5 0.5 0.5 0.5 0.5 0.5 0.5 0.5 0.5 0.5 0.5 0.5 0.5 0.5 0.5 0.5 0.5 0.5 0.5 0.5 0.5 0.5 0.5 0.5 0.5 0.5 0.5 0.5 0.5 0.5 0.5 0.5 0.5 0.5 0.5 0.5 0.5 0.5 0.5 0.5 0.5 0.5 0.5 0.5 0.5 0.5 0.5 0.5 0.5 0.5 0.5 0.5 0.5 0.5 0.5 0.5 0.5 0.5 0.5 0.5 0.5 0.5 0.5 0.5 0.5 0.5 0.5 0.5 0.5 0.5 0.5 0.5 0.5 0.5 0.5 0.5 0.5 0.5 0.5 0.5 0.5 0.5 0.5 0.5 0.5 0.5 0.5 0.5 0.5 0.5 0.5 0.5 0.5 0.5 0.5 0.5 0.5 0.5 0.5 0.5 0.5 0.686522 0.31347800000000003 0.595099 0.40490099999999996 0.837329 0.162671 0.189419 0.810581 0.5 0.5 0.5 0.5 0.5 0.5 0.5 0.5 0.5 0.5 0.5 0.5 0.5 0.5 0.5 0.5 0.5 0.5 0.5 0.5 0.5 0.5 0.5 0.5 0.5 0.5 0.5 0.5 0.5 0.5 0.5 0.5 0.5 0.5 0.5 0.5 0.5 0.5 0.5 0.5 0.5 0.5 0.5 0.5 0.969769 0.030231000000000008 0.594814 0.40518600000000005 0.0900198 0.9099802 0.479737 0.5202629999999999 0.5 0.5 0.5 0.5 0.5 0.5 0.5 0.5 0.5 0.5 0.5 0.5 0.5 0.5 0.5 0.5 0.5 0.5 0.5 0.5 0.5 0.5 0.5 0.5 0.5 0.5 0.5 0.5 0.5 0.5 0.5 0.5 0.5 0.5 0.5 0.5 0.5 0.5 0.5 0.5 0.5 0.5 0.5 0.5 0.5 0.5 0.5 0.5 0.5 0.5 0.5 0.5 0.5 0.5 0.5 0.5 0.5 0.5 0.5 0.5 0.5 0.5 0.5 0.5 0.5 0.5 0.5 0.5 0.5 0.5 0.5 0.5 0.5 0.5 0.5 0.5 0.5 0.5 0.5 0.5 0.5 0.5 0.5 0.5 0.5 0.5 0.5 0.5 0.5 0.5 0.5 0.5 0.5 0.5 0.5 0.5 0.5 0.5 0.5 0.5 0.5 0.5 0.5 0.5 0.5 0.5 0.5 0.5 0.5 0.5 0.5 0.5 0.5 0.5 0.5 0.5 0.5 0.5 0.5 0.5 0.5 0.5 0.5 0.5 0.5 0.5 0.5 0.5 0.5 0.5 0.5 0.5 0.5 0.5 0.5 0.5 0.5 0.5 0.5 0.5 0.5 0.5 0.5 0.5 0.5 0.5 0.5 0.5 0.5 0.5 0.5 0.5 0.5 0.5 0.5 0.5 0.5 0.5 0.5 0.5 0.5 0.5 0.5 0.5 0.5 0.5 0.5 0.5 0.5 0.5 0.5 0.5 0.5 0.5 0.5 0.5 0.631508 0.36849200000000004 0.245763 0.754237 0.326444 0.673556 0.785344 0.21465599999999996 0.5 0.5 0.5 0.5 0.5 0.5 0.5 0.5 0.5 0.5 0.5 0.5 0.5 0.5 0.5 0.5 0.5 0.5 0.5 0.5 0.5 0.5 0.5 0.5 0.5 0.5 0.5 0.5 0.5 0.5 0.5 0.5 0.5 0.5 0.5 0.5 0.5 0.5 0.5 0.5 0.5 0.5 0.5 0.5 0.335422 0.664578 0.54626 0.45374000000000003 0.113163 0.886837 0.502526 0.49747399999999997 0.0844274 0.9155726 0.17953 0.82047 0.638617 0.361383 0.222001 0.777999 0.5 0.5 0.5 0.5 0.5 0.5 0.5 0.5 0.0512645 0.9487355 0.142019 0.857981 0.147699 0.852301 0.214841 0.7851589999999999 0.5 0.5 0.5 0.5 0.5 0.5 0.5 0.5 0.881563 0.11843700000000001 0.164434 0.835566 0.989977 0.010023000000000004 0.642479 0.357521
-1 2 0
1 -2 0
-2 3 0
2 -3 0
-3 -4 0
3 4 0
-4 5 0
4 -5 0
-5 6 0
5 -6 0
-6 -7 0
6 7 0
-7 8 0
7 -8 0
-8 9 0
8 -9 0
-9 10 0
9 -10 0
-1 -11 0
1 11 0
-11 -2 12 0
-11 2 12 0
11 -2 -12 0
11 2 -12 0
-12 -3 -13 0
-12 3 -13 0
12 -3 -13 0
12 3 13 0
-13 -4 14 0
-13 4 -14 0
13 -4 -14 0
13 4 -14 0
-14 -5 15 0
-14 5 -15 0
14 -5 -15 0
14 5 -15 0
-15 -6 -137 16 0
-15 -6 137 -16 0
-15 6 -138 16 0
-15 6 138 -16 0
15 -6 -139 16 0
15 -6 139 -16 0
15 6 -140 16 0
15 6 140 -16 0
-16 -7 -141 17 0
-16 -7 141 -17 0
-16 7 -142 17 0
-16 7 142 -17 0
16 -7 -143 17 0
16 -7 143 -17 0
16 7 -144 17 0
16 7 144 -17 0
-17 -8 18 0
-17 8 18 0
17 -8 -18 0
17 8 -18 0
-18 -9 -19 0
-18 9 19 0
18 -9 -19 0
18 9 -19 0
-19 -10 20 0
-19 10 20 0
19 -10 -20 0
19 10 -20 0
-11 21 0
11 -21 0
-21 -12 22 0
-21 12 -22 0
21 -12 22 0
21 12 22 0
-22 -13 23 0
-22 13 23 0
22 -13 23 0
22 13 -23 0
-23 -14 -24 0
-23 14 -24 0
23 -14 -24 0
23 14 24 0
-24 -15 -25 0
-24 15 25 0
24 -15 25 0
24 15 25 0
-25 -16 26 0
-25 16 26 0
25 -16 -26 0
25 16 26 0
-26 -17 -27 0
-26 17 -27 0
26 -17 27 0
26 17 -27 0
-27 -18 28 0
-27 18 28 0
27 -18 28 0
27 18 -28 0
-28 -19 -29 0
-28 19 29 0
28 -19 -29 0
28 19 29 0
-29 -20 30 0
-29 20 -30 0
29 -20 30 0
29 20 30 0
-21 31 0
21 -31 0
-31 -22 -32 0
-31 22 -32 0
31 -22 -32 0
31 22 32 0
-32 -23 -33 0
-32 23 33 0
32 -23 33 0
32 23 -33 0
-33 -24 -34 0
-33 24 34 0
33 -24 -34 0
33 24 34 0
-34 -25 -209 35 0
-34 -25 209 -35 0
-34 25 -210 35 0
-34 25 210 -35 0
34 -25 -211 35 0
34 -25 211 -35 0
34 25 -212 35 0
34 25 212 -35 0
-35 -26 -36 0
-35 26 -36 0
35 -26 36 0
35 26 36 0
-36 -27 -37 0
-36 27 37 0
36 -27 -37 0
36 27 -37 0
-37 -28 -221 38 0
-37 -28 221 -38 0
-37 28 -222 38 0
-37 28 222 -38 0
37 -28 -223 38 0
37 -28 223 -38 0
37 28 -224 38 0
37 28 224 -38 0
-38 -29 39 0
-38 29 39 0
38 -29 39 0
38 29 -39 0
-39 -30 40 0
-39 30 40 0
39 -30 -40 0
39 30 -40 0
-31 -41 0
31 41 0
-41 -32 42 0
-41 32 42 0
41 -32 42 0
41 32 -42 0
-42 -33 -43 0
-42 33 -43 0
42 -33 -43 0
42 33 43 0
-43 -34 44 0
-43 34 -44 0
43 -34 44 0
43 34 44 0
-44 -35 45 0
-44 35 45 0
44 -35 -45 0
44 35 -45 0
-45 -36 -46 0
-45 36 -46 0
45 -36 46 0
45 36 46 0
-46 -37 47 0
-46 37 47 0
46 -37 47 0
46 37 -47 0
-47 -38 -48 0
-47 38 48 0
47 -38 48 0
47 38 48 0
-48 -39 49 0
-48 39 49 0
48 -39 -49 0
48 39 49 0
-49 -40 -50 0
-49 40 -50 0
49 -40 50 0
49 40 -50 0
-41 -51 0
41 51 0
-51 -42 -52 0
-51 42 -52 0
51 -42 52 0
51 42 -52 0
-52 -43 -53 0
-52 43 -53 0
52 -43 53 0
52 43 53 0
-53 -44 54 0
-53 44 54 0
53 -44 -54 0
53 44 54 0
-54 -45 -55 0
-54 45 55 0
54 -45 -55 0
54 45 -55 0
-55 -46 -56 0
-55 46 -56 0
55 -46 -56 0
55 46 56 0
-56 -47 -293 57 0
-56 -47 293 -57 0
-56 47 -294 57 0
-56 47 294 -57 0
56 -47 -295 57 0
56 -47 295 -57 0
56 47 -296 57 0
56 47 296 -57 0
-57 -48 58 0
-57 48 -58 0
57 -48 58 0
57 48 58 0
-58 -49 59 0
-58 49 59 0
58 -49 -59 0
58 49 -59 0
-59 -50 -60 0
-59 50 60 0
59 -50 -60 0
59 50 60 0
-51 61 0
51 -61 0
-61 -52 -62 0
-61 52 62 0
61 -52 62 0
61 52 -62 0
-62 -53 63 0
-62 53 -63 0
62 -53 -63 0
62 53 -63 0
-63 -54 -319 64 0
-63 -54 319 -64 0
-63 54 -320 64 0
-63 54 320 -64 0
63 -54 -321 64 0
63 -54 321 -64 0
63 54 -322 64 0
63 54 322 -64 0
-64 -55 65 0
-64 55 -65 0
64 -55 65 0
64 55 -65 0
-65 -56 66 0
-65 56 66 0
65 -56 66 0
65 56 -66 0
-66 -57 -67 0
-66 57 -67 0
66 -57 -67 0
66 57 67 0
-67 -58 68 0
-67 58 68 0
67 -58 -68 0
67 58 68 0
-68 -59 -69 0
-68 59 -69 0
68 -59 -69 0
68 59 69 0
-69 -60 70 0
-69 60 -70 0
69 -60 -70 0
69 60 70 0
-61 71 0
61 -71 0
-71 -62 -72 0
-71 62 72 0
71 -62 72 0
71 62 72 0
-72 -63 -73 0
-72 63 73 0
72 -63 73 0
72 63 73 0
-73 -64 74 0
-73 64 -74 0
73 -64 74 0
73 64 74 0
-74 -65 -75 0
-74 65 -75 0
74 -65 75 0
74 65 -75 0
-75 -66 76 0
-75 66 -76 0
75 -66 76 0
75 66 -76 0
-76 -67 -77 0
-76 67 -77 0
76 -67 77 0
76 67 77 0
-77 -68 -78 0
-77 68 78 0
77 -68 78 0
77 68 78 0
-78 -69 79 0
-78 69 -79 0
78 -69 -79 0
78 69 79 0
-79 -70 -80 0
-79 70 -80 0
79 -70 80 0
79 70 -80 0
-71 81 0
71 -81 0
-81 -72 82 0
-81 72 82 0
81 -72 -82 0
81 72 -82 0
-82 -73 -83 0
-82 73 83 0
82 -73 83 0
82 73 -83 0
-83 -74 84 0
-83 74 84 0
83 -74 -84 0
83 74 84 0
-84 -75 -85 0
-84 75 -85 0
84 -75 85 0
84 75 85 0
-85 -76 86 0
-85 76 86 0
85 -76 -86 0
85 76 -86 0
-86 -77 87 0
-86 77 -87 0
86 -77 -87 0
86 77 -87 0
-87 -78 -411 88 0
-87 -78 411 -88 0
-87 78 -412 88 0
-87 78 412 -88 0
87 -78 -413 88 0
87 -78 413 -88 0
87 78 -414 88 0
87 78 414 -88 0
-88 -79 89 0
-88 79 -89 0
88 -79 89 0
88 79 -89 0
-89 -80 90 0
-89 80 90 0
89 -80 -90 0
89 80 90 0
-81 -91 0
81 91 0
-91 -82 -92 0
-91 82 92 0
91 -82 -92 0
91 82 -92 0
-92 -83 -93 0
-92 83 -93 0
92 -83 -93 0
92 83 93 0
-93 -84 -94 0
-93 84 -94 0
93 -84 94 0
93 84 -94 0
-94 -85 -437 95 0
-94 -85 437 -95 0
-94 85 -438 95 0
-94 85 438 -95 0
94 -85 -439 95 0
94 -85 439 -95 0
94 85 -440 95 0
94 85 440 -95 0
-95 -86 -441 96 0
-95 -86 441 -96 0
-95 86 -442 96 0
-95 86 442 -96 0
95 -86 -443 96 0
95 -86 443 -96 0
95 86 -444 96 0
95 86 444 -96 0
-96 -87 -97 0
-96 87 -97 0
96 -87 97 0
96 87 -97 0
-97 -88 -449 98 0
-97 -88 449 -98 0
-97 88 -450 98 0
-97 88 450 -98 0
97 -88 -451 98 0
97 -88 451 -98 0
97 88 -452 98 0
97 88 452 -98 0
-98 -89 -99 0
-98 89 99 0
98 -89 -99 0
98 89 -99 0
-99 -90 -457 100 0
-99 -90 457 -100 0
-99 90 -458 100 0
-99 90 458 -100 0
99 -90 -459 100 0
99 -90 459 -100 0
99 90 -460 100 0
99 90 460 -100 0
100 0
