data/benchmarks/bayes/90-10-4-q.gr
p tw 460 393
7 17
67 68
99 100
67 77
8 9
94 439
8 18
40 50
41 42
35 209
73 74
41 51
25 34
73 83
97 449
14 15
14 24
74 75
74 84
100 460
56 295
28 224
15 16
47 48
15 25
47 57
59 68
48 49
48 58
80 90
15 137
81 82
33 42
7 142
81 91
86 444
54 321
22 23
84 93
22 32
38 224
66 75
55 56
7 16
55 65
58 67
40 49
85 438
73 82
32 41
14 23
100 459
65 74
47 56
47 294
6 15
21 22
21 31
80 89
39 48
54 55
78 412
54 64
35 212
54 320
38 223
87 88
87 97
28 29
28 38
88 89
88 98
29 30
61 62
61 71
85 437
2 3
17 141
34 212
2 12
62 63
96 443
94 95
99 457
3 4
6 140
35 36
35 45
95 96
100 458
36 37
68 69
68 78
47 293
69 70
69 79
78 411
37 221
54 63
13 22
88 452
43 44
54 319
43 53
38 222
87 96
46 55
76 77
28 37
76 86
79 88
95 441
20 29
34 211
2 11
96 442
53 62
6 139
35 44
9 10
86 95
9 19
68 77
27 36
42 43
16 143
25 210
42 52
60 69
17 144
75 76
75 85
88 451
16 17
16 26
64 322
90 460
49 50
49 59
16 138
82 83
95 440
82 92
23 24
34 210
23 33
83 84
24 25
56 57
98 450
56 66
57 58
57 296
89 90
89 99
87 413
30 40
16 142
25 209
95 444
63 321
31 32
88 414
34 43
64 65
64 321
90 459
5 6
67 76
97 98
94 438
8 17
16 137
95 439
82 91
74 83
56 294
28 223
98 449
56 65
15 24
57 295
89 98
48 57
87 412
63 64
63 73
63 320
4 5
7 141
4 14
86 443
97 452
22 31
37 38
37 47
55 64
90 458
70 80
94 437
29 39
11 12
11 21
15 140
62 72
44 45
44 54
3 13
56 293
28 222
36 46
96 97
18 19
18 28
87 411
10 20
63 319
35 211
86 442
97 451
85 86
88 97
77 78
29 38
77 87
15 139
62 71
7 144
51 52
3 12
51 61
100 457
36 45
69 78
85 440
10 19
25 26
35 210
25 35
99 460
43 52
38 221
17 18
17 27
76 85
47 296
50 60
77 86
96 441
83 93
78 414
37 224
6 138
24 34
84 85
54 322
84 94
9 18
57 67
58 59
58 68
42 51
90 100
85 439
31 41
17 143
91 92
75 84
88 450
32 33
99 459
32 42
16 25
64 74
5 15
65 66
17 26
65 75
49 58
6 7
47 295
6 16
98 99
50 59
39 40
34 209
39 49
23 32
83 92
78 413
37 223
72 73
6 137
24 33
72 82
57 66
30 39
16 141
95 443
90 99
88 413
17 142
96 444
88 449
99 458
64 73
64 320
38 39
5 14
38 48
71 72
71 81
95 438
25 212
12 13
12 22
37 222
13 14
45 46
13 23
45 55
72 81
46 47
78 79
46 56
57 294
78 88
19 20
19 29
79 80
16 140
79 89
63 72
95 442
52 53
20 30
4 13
88 412
52 62
53 54
53 63
37 46
85 95
98 452
26 27
64 319
90 457
26 36
86 87
38 47
86 96
70 79
27 28
27 37
16 144
95 437
25 211
12 21
60 70
44 53
1 2
1 11
93 94
45 54
28 221
18 27
57 293
78 87
94 440
19 28
16 139
88 411
52 61
86 441
97 450
85 94
56 296
98 451
59 60
26 35
59 69
92 93
87 414
15 138
33 34
63 322
33 43
7 143
34 35
66 67
34 44
66 76
7 8
